
Gurobi 13.0.0 (linux64) logging started Fri Jan 16 08:37:10 2026

Set parameter LogFile to value "../experiments/network-n_60_s_0_rp_0-app_set-id_53_22_apps/submip_40_epr1_model_gurobi.log"
Set parameter TimeLimit to value 7.9921995505198720e+02
Gurobi Optimizer version 13.0.0 build v13.0.0rc1 (linux64 - "Ubuntu 24.04.3 LTS")

CPU model: Intel(R) Core(TM) Ultra 7 165H, instruction set [SSE2|AVX|AVX2]
Thread count: 22 physical cores, 22 logical processors, using up to 22 threads

Non-default parameters:
TimeLimit  7.9921995505198720e+02
LogToConsole  0

Academic license 2539022 - for non-commercial use only - registered to al___@studenti.unimi.it
Optimize a model with 42234 rows, 8580 columns and 96295 nonzeros (Min)
Model fingerprint: 0x25c06dcd
Model has 8580 linear objective coefficients
Model has 200 quadratic constraints
Variable types: 0 continuous, 8580 integer (8580 binary)
Coefficient statistics:
  Matrix range     [1e+00, 9e+02]
  QMatrix range    [5e+01, 2e+02]
  Objective range  [1e+01, 2e+02]
  Bounds range     [1e+00, 1e+00]
  RHS range        [1e+00, 1e+09]
  QRHS range       [1e+02, 6e+02]
Presolve removed 41738 rows and 6961 columns
Presolve time: 0.11s
Presolved: 12537 rows, 13416 columns, 76656 nonzeros
Variable types: 0 continuous, 13416 integer (13416 binary)

Root relaxation: objective 5.328664e+03, 1895 iterations, 0.16 seconds (0.25 work units)

    Nodes    |    Current Node    |     Objective Bounds      |     Work
 Expl Unexpl |  Obj  Depth IntInf | Incumbent    BestBd   Gap | It/Node Time

     0     0 5328.66369    0  166          - 5328.66369      -     -    0s
     0     0 5406.97684    0  189          - 5406.97684      -     -    1s
     0     0 5518.20368    0  201          - 5518.20368      -     -    1s
     0     0 5530.73657    0  216          - 5530.73657      -     -    2s
     0     0 5530.98123    0  206          - 5530.98123      -     -    2s
     0     0 5582.78536    0  222          - 5582.78536      -     -    3s
     0     0 5615.18669    0  244          - 5615.18669      -     -    3s
     0     0 5625.49065    0  251          - 5625.49065      -     -    3s
     0     0 5636.67877    0  250          - 5636.67877      -     -    3s
     0     0 5638.71577    0  260          - 5638.71577      -     -    3s
     0     0 5857.16102    0  226          - 5857.16102      -     -    4s
     0     0 infeasible    0               - infeasible      -     -    4s

Cutting planes:
  Gomory: 2
  Lift-and-project: 5
  Cover: 76
  Clique: 50
  MIR: 70
  Knapsack: 17
  StrongCG: 46
  GUB cover: 16
  Zero half: 15
  RLT: 134
  Relax-and-lift: 99
  BQP: 27

Explored 1 nodes (7670 simplex iterations) in 5.01 seconds (4.10 work units)
Thread count was 22 (of 22 available processors)

Solution count 0

Model is infeasible
Best objective -, best bound -, gap -

User-callback calls 1166, time in user-callback 0.00 sec
